p cnf 592 2600
1 2 0
 3 2 0
 4 2 0
 -1 -3 -4 -2 0
 5 6 0
 7 6 0
 8 6 0
 -5 -7 -8 -6 0
 -2 6 -9 0
 2 -6 -9 0
 -2 -6 9 0
 2 6 9 0
 10 11 0
 12 11 0
 13 11 0
 -10 -12 -13 -11 0
 14 15 0
 16 15 0
 17 15 0
 -14 -16 -17 -15 0
 9 11 15 -18 0
 -9 -11 15 -18 0
 -9 11 -15 -18 0
 9 -11 -15 -18 0
 -9 -11 -15 18 0
 9 11 -15 18 0
 9 -11 15 18 0
 -9 11 15 18 0
 19 20 0
 21 20 0
 22 20 0
 -19 -21 -22 -20 0
 23 24 0
 25 24 0
 26 24 0
 -23 -25 -26 -24 0
 18 20 24 -27 0
 -18 -20 24 -27 0
 -18 20 -24 -27 0
 18 -20 -24 -27 0
 -18 -20 -24 27 0
 18 20 -24 27 0
 18 -20 24 27 0
 -18 20 24 27 0
 -27 0
 1 28 0
 3 28 0
 29 28 0
 -29 -1 -3 -28 0
 5 30 0
 7 30 0
 31 30 0
 -31 -5 -7 -30 0
 30 -28 -32 0
 28 -30 -32 0
 -30 -28 32 0
 28 30 32 0
 10 33 0
 12 33 0
 34 33 0
 -34 -10 -12 -33 0
 14 35 0
 16 35 0
 36 35 0
 -36 -14 -16 -35 0
 32 33 35 -37 0
 -32 -33 35 -37 0
 -32 33 -35 -37 0
 32 -33 -35 -37 0
 -32 -33 -35 37 0
 32 33 -35 37 0
 32 -33 35 37 0
 -32 33 35 37 0
 19 38 0
 21 38 0
 39 38 0
 -19 -21 -39 -38 0
 23 40 0
 25 40 0
 41 40 0
 -23 -25 -41 -40 0
 37 38 40 0
 -37 -38 40 0
 -37 38 -40 0
 37 -38 -40 0
 1 42 0
 3 42 0
 43 42 0
 -1 -3 -43 -42 0
 5 44 0
 7 44 0
 45 44 0
 -5 -7 -45 -44 0
 -42 44 -46 0
 42 -44 -46 0
 -42 -44 46 0
 42 44 46 0
 10 47 0
 12 47 0
 48 47 0
 -10 -12 -48 -47 0
 14 49 0
 16 49 0
 50 49 0
 -14 -16 -50 -49 0
 46 47 49 -51 0
 -46 -47 49 -51 0
 -46 47 -49 -51 0
 46 -47 -49 -51 0
 -46 -47 -49 51 0
 46 47 -49 51 0
 46 -47 49 51 0
 -46 47 49 51 0
 19 52 0
 21 52 0
 53 52 0
 -19 -21 -53 -52 0
 23 54 0
 25 54 0
 55 54 0
 -23 -25 -55 -54 0
 51 52 54 0
 -51 -52 54 0
 -51 52 -54 0
 51 -52 -54 0
 1 56 0
 3 56 0
 57 56 0
 -56 -1 -3 -57 0
 5 58 0
 7 58 0
 59 58 0
 -5 -7 -59 -58 0
 -56 58 -60 0
 -58 56 -60 0
 -56 -58 60 0
 58 56 60 0
 10 61 0
 12 61 0
 62 61 0
 -10 -12 -62 -61 0
 14 63 0
 16 63 0
 64 63 0
 -64 -14 -16 -63 0
 60 61 63 -65 0
 -60 -61 63 -65 0
 -60 61 -63 -65 0
 60 -61 -63 -65 0
 -60 -61 -63 65 0
 60 61 -63 65 0
 60 -61 63 65 0
 -60 61 63 65 0
 19 66 0
 21 66 0
 67 66 0
 -19 -21 -67 -66 0
 23 68 0
 25 68 0
 69 68 0
 -23 -25 -69 -68 0
 65 66 68 0
 -65 -66 68 0
 -65 66 -68 0
 65 -66 -68 0
 1 70 0
 71 70 0
 4 70 0
 -1 -4 -71 -70 0
 5 72 0
 73 72 0
 8 72 0
 -5 -8 -73 -72 0
 72 -70 -74 0
 -72 70 -74 0
 -72 -70 74 0
 72 70 74 0
 10 75 0
 76 75 0
 13 75 0
 -10 -13 -76 -75 0
 14 77 0
 78 77 0
 17 77 0
 -14 -17 -78 -77 0
 74 75 77 -79 0
 -74 -75 77 -79 0
 -74 75 -77 -79 0
 74 -75 -77 -79 0
 -74 -75 -77 79 0
 74 75 -77 79 0
 74 -75 77 79 0
 -74 75 77 79 0
 19 80 0
 81 80 0
 22 80 0
 -19 -22 -81 -80 0
 23 82 0
 83 82 0
 26 82 0
 -23 -26 -83 -82 0
 79 80 82 0
 -79 -80 82 0
 -79 80 -82 0
 79 -80 -82 0
 1 84 0
 71 84 0
 29 84 0
 -29 -1 -71 -84 0
 5 85 0
 73 85 0
 31 85 0
 -31 -5 -73 -85 0
 -84 85 -86 0
 84 -85 -86 0
 -84 -85 86 0
 84 85 86 0
 10 87 0
 76 87 0
 34 87 0
 -34 -10 -76 -87 0
 14 88 0
 78 88 0
 36 88 0
 -36 -14 -78 -88 0
 86 87 88 -89 0
 -86 -87 88 -89 0
 -86 87 -88 -89 0
 86 -87 -88 -89 0
 -86 -87 -88 89 0
 86 87 -88 89 0
 86 -87 88 89 0
 -86 87 88 89 0
 19 90 0
 81 90 0
 39 90 0
 -19 -39 -81 -90 0
 23 91 0
 83 91 0
 41 91 0
 -23 -41 -83 -91 0
 89 90 91 -92 0
 -89 -90 91 -92 0
 -89 90 -91 -92 0
 89 -90 -91 -92 0
 -89 -90 -91 92 0
 89 90 -91 92 0
 89 -90 91 92 0
 -89 90 91 92 0
 -92 0
 1 93 0
 71 93 0
 43 93 0
 -1 -43 -71 -93 0
 5 94 0
 73 94 0
 45 94 0
 -5 -45 -73 -94 0
 -93 94 -95 0
 93 -94 -95 0
 -93 -94 95 0
 93 94 95 0
 10 96 0
 76 96 0
 48 96 0
 -10 -48 -76 -96 0
 14 97 0
 78 97 0
 50 97 0
 -14 -50 -78 -97 0
 95 96 97 -98 0
 -95 -96 97 -98 0
 -95 96 -97 -98 0
 95 -96 -97 -98 0
 -95 -96 -97 98 0
 95 96 -97 98 0
 95 -96 97 98 0
 -95 96 97 98 0
 19 99 0
 81 99 0
 53 99 0
 -19 -53 -81 -99 0
 23 100 0
 83 100 0
 55 100 0
 -23 -55 -83 -100 0
 98 99 100 0
 -98 -99 100 0
 -98 99 -100 0
 98 -99 -100 0
 1 101 0
 71 101 0
 57 101 0
 -1 -57 -71 -101 0
 5 102 0
 73 102 0
 59 102 0
 -5 -59 -73 -102 0
 102 -101 -103 0
 -102 101 -103 0
 -101 -102 103 0
 102 101 103 0
 10 104 0
 76 104 0
 62 104 0
 -10 -62 -76 -104 0
 14 105 0
 78 105 0
 64 105 0
 -64 -14 -78 -105 0
 103 104 105 -106 0
 -103 -104 105 -106 0
 -103 104 -105 -106 0
 103 -104 -105 -106 0
 -103 -104 -105 106 0
 103 104 -105 106 0
 103 -104 105 106 0
 -103 104 105 106 0
 19 107 0
 81 107 0
 67 107 0
 -19 -67 -81 -107 0
 23 108 0
 83 108 0
 69 108 0
 -23 -69 -83 -108 0
 106 107 108 0
 -106 -107 108 0
 -106 107 -108 0
 106 -107 -108 0
 1 109 0
 110 109 0
 4 109 0
 -1 -4 -110 -109 0
 5 111 0
 112 111 0
 8 111 0
 -5 -8 -112 -111 0
 111 -109 -113 0
 109 -111 -113 0
 -111 -109 113 0
 109 111 113 0
 10 114 0
 115 114 0
 13 114 0
 -10 -13 -115 -114 0
 14 116 0
 117 116 0
 17 116 0
 -14 -17 -117 -116 0
 113 114 116 -118 0
 -113 -114 116 -118 0
 -113 114 -116 -118 0
 113 -114 -116 -118 0
 -113 -114 -116 118 0
 113 114 -116 118 0
 113 -114 116 118 0
 -113 114 116 118 0
 19 119 0
 120 119 0
 22 119 0
 -19 -22 -120 -119 0
 23 121 0
 122 121 0
 26 121 0
 -23 -26 -122 -121 0
 118 119 121 0
 -118 -119 121 0
 -118 119 -121 0
 118 -119 -121 0
 1 123 0
 110 123 0
 29 123 0
 -29 -1 -110 -123 0
 5 124 0
 112 124 0
 31 124 0
 -31 -5 -112 -124 0
 124 -123 -125 0
 123 -124 -125 0
 -124 -123 125 0
 123 124 125 0
 10 126 0
 115 126 0
 34 126 0
 -34 -10 -115 -126 0
 14 127 0
 117 127 0
 36 127 0
 -36 -14 -117 -127 0
 125 126 127 -128 0
 -125 -126 127 -128 0
 -125 126 -127 -128 0
 125 -126 -127 -128 0
 -125 -126 -127 128 0
 125 126 -127 128 0
 125 -126 127 128 0
 -125 126 127 128 0
 19 129 0
 120 129 0
 39 129 0
 -19 -39 -120 -129 0
 23 130 0
 122 130 0
 41 130 0
 -23 -41 -122 -130 0
 128 129 130 0
 -128 -129 130 0
 -128 129 -130 0
 128 -129 -130 0
 1 131 0
 110 131 0
 43 131 0
 -1 -43 -110 -131 0
 5 132 0
 112 132 0
 45 132 0
 -5 -112 -45 -132 0
 -131 132 -133 0
 131 -132 -133 0
 -131 -132 133 0
 131 132 133 0
 10 134 0
 115 134 0
 48 134 0
 -10 -48 -115 -134 0
 14 135 0
 117 135 0
 50 135 0
 -14 -50 -117 -135 0
 133 134 135 -136 0
 -133 -134 135 -136 0
 -133 134 -135 -136 0
 133 -134 -135 -136 0
 -133 -134 -135 136 0
 133 134 -135 136 0
 133 -134 135 136 0
 -133 134 135 136 0
 19 137 0
 120 137 0
 53 137 0
 -19 -53 -120 -137 0
 23 138 0
 122 138 0
 55 138 0
 -23 -55 -122 -138 0
 136 137 138 0
 -136 -137 138 0
 -136 137 -138 0
 136 -137 -138 0
 1 139 0
 110 139 0
 57 139 0
 -1 -57 -110 -139 0
 5 140 0
 112 140 0
 59 140 0
 -5 -112 -59 -140 0
 -139 140 -141 0
 -140 139 -141 0
 -139 -140 141 0
 139 140 141 0
 10 142 0
 115 142 0
 62 142 0
 -10 -62 -115 -142 0
 14 143 0
 117 143 0
 64 143 0
 -64 -14 -117 -143 0
 141 142 143 -144 0
 -141 -142 143 -144 0
 -141 142 -143 -144 0
 141 -142 -143 -144 0
 -141 -142 -143 144 0
 141 142 -143 144 0
 141 -142 143 144 0
 -141 142 143 144 0
 19 145 0
 120 145 0
 67 145 0
 -19 -67 -120 -145 0
 23 146 0
 122 146 0
 69 146 0
 -23 -69 -122 -146 0
 144 145 146 0
 -144 -145 146 0
 -144 145 -146 0
 144 -145 -146 0
 1 147 0
 148 147 0
 4 147 0
 -1 -4 -147 -148 0
 5 149 0
 150 149 0
 8 149 0
 -5 -8 -150 -149 0
 149 -147 -151 0
 -149 147 -151 0
 -147 -149 151 0
 149 147 151 0
 10 152 0
 153 152 0
 13 152 0
 -10 -13 -153 -152 0
 14 154 0
 155 154 0
 17 154 0
 -14 -17 -155 -154 0
 151 152 154 -156 0
 -151 -152 154 -156 0
 -151 152 -154 -156 0
 151 -152 -154 -156 0
 -151 -152 -154 156 0
 151 152 -154 156 0
 151 -152 154 156 0
 -151 152 154 156 0
 19 157 0
 158 157 0
 22 157 0
 -19 -22 -158 -157 0
 23 159 0
 160 159 0
 26 159 0
 -23 -26 -160 -159 0
 156 157 159 0
 -156 -157 159 0
 -156 157 -159 0
 156 -157 -159 0
 1 161 0
 148 161 0
 29 161 0
 -29 -1 -161 -148 0
 5 162 0
 150 162 0
 31 162 0
 -31 -5 -150 -162 0
 -161 162 -163 0
 161 -162 -163 0
 -161 -162 163 0
 161 162 163 0
 10 164 0
 153 164 0
 34 164 0
 -34 -10 -153 -164 0
 14 165 0
 155 165 0
 36 165 0
 -36 -14 -155 -165 0
 163 164 165 -166 0
 -163 -164 165 -166 0
 -163 164 -165 -166 0
 163 -164 -165 -166 0
 -163 -164 -165 166 0
 163 164 -165 166 0
 163 -164 165 166 0
 -163 164 165 166 0
 19 167 0
 158 167 0
 39 167 0
 -19 -39 -158 -167 0
 23 168 0
 160 168 0
 41 168 0
 -23 -41 -160 -168 0
 166 167 168 0
 -166 -167 168 0
 -166 167 -168 0
 166 -167 -168 0
 1 169 0
 148 169 0
 43 169 0
 -1 -43 -148 -169 0
 5 170 0
 150 170 0
 45 170 0
 -5 -45 -150 -170 0
 170 -169 -171 0
 -170 169 -171 0
 -169 -170 171 0
 170 169 171 0
 10 172 0
 153 172 0
 48 172 0
 -10 -48 -153 -172 0
 14 173 0
 155 173 0
 50 173 0
 -14 -50 -155 -173 0
 171 172 173 -174 0
 -171 -172 173 -174 0
 -171 172 -173 -174 0
 171 -172 -173 -174 0
 -171 -172 -173 174 0
 171 172 -173 174 0
 171 -172 173 174 0
 -171 172 173 174 0
 19 175 0
 158 175 0
 53 175 0
 -19 -53 -158 -175 0
 23 176 0
 160 176 0
 55 176 0
 -23 -55 -160 -176 0
 174 175 176 0
 -174 -175 176 0
 -174 175 -176 0
 174 -175 -176 0
 1 177 0
 148 177 0
 57 177 0
 -1 -57 -177 -148 0
 5 178 0
 150 178 0
 59 178 0
 -5 -59 -150 -178 0
 178 -177 -179 0
 -178 177 -179 0
 -177 -178 179 0
 178 177 179 0
 10 180 0
 153 180 0
 62 180 0
 -10 -62 -153 -180 0
 14 181 0
 155 181 0
 64 181 0
 -64 -14 -155 -181 0
 179 180 181 -182 0
 -179 -180 181 -182 0
 -179 180 -181 -182 0
 179 -180 -181 -182 0
 -179 -180 -181 182 0
 179 180 -181 182 0
 179 -180 181 182 0
 -179 180 181 182 0
 19 183 0
 158 183 0
 67 183 0
 -19 -67 -158 -183 0
 23 184 0
 160 184 0
 69 184 0
 -23 -69 -160 -184 0
 182 183 184 0
 -182 -183 184 0
 -182 183 -184 0
 182 -183 -184 0
 185 186 0
 3 186 0
 4 186 0
 -3 -4 -186 -185 0
 187 188 0
 7 188 0
 8 188 0
 -7 -8 -187 -188 0
 -186 188 -189 0
 186 -188 -189 0
 -186 -188 189 0
 186 188 189 0
 190 191 0
 12 191 0
 13 191 0
 -12 -13 -190 -191 0
 192 193 0
 16 193 0
 17 193 0
 -16 -17 -192 -193 0
 189 191 193 -194 0
 -189 -191 193 -194 0
 -189 191 -193 -194 0
 189 -191 -193 -194 0
 -189 -191 -193 194 0
 189 191 -193 194 0
 189 -191 193 194 0
 -189 191 193 194 0
 195 196 0
 21 196 0
 22 196 0
 -21 -22 -195 -196 0
 197 198 0
 25 198 0
 26 198 0
 -25 -26 -197 -198 0
 194 196 198 0
 -194 -196 198 0
 -194 196 -198 0
 194 -196 -198 0
 185 199 0
 3 199 0
 29 199 0
 -29 -3 -199 -185 0
 187 200 0
 7 200 0
 31 200 0
 -31 -7 -187 -200 0
 -199 200 -201 0
 -200 199 -201 0
 -199 -200 201 0
 200 199 201 0
 190 202 0
 12 202 0
 34 202 0
 -34 -12 -190 -202 0
 192 203 0
 16 203 0
 36 203 0
 -36 -16 -192 -203 0
 201 202 203 -204 0
 -201 -202 203 -204 0
 -201 202 -203 -204 0
 201 -202 -203 -204 0
 -201 -202 -203 204 0
 201 202 -203 204 0
 201 -202 203 204 0
 -201 202 203 204 0
 195 205 0
 21 205 0
 39 205 0
 -21 -39 -195 -205 0
 197 206 0
 25 206 0
 41 206 0
 -25 -41 -197 -206 0
 204 205 206 0
 -204 -205 206 0
 -204 205 -206 0
 204 -205 -206 0
 185 207 0
 3 207 0
 43 207 0
 -3 -43 -185 -207 0
 187 208 0
 7 208 0
 45 208 0
 -7 -45 -187 -208 0
 208 -207 -209 0
 -208 207 -209 0
 -208 -207 209 0
 208 207 209 0
 190 210 0
 12 210 0
 48 210 0
 -12 -48 -190 -210 0
 192 211 0
 16 211 0
 50 211 0
 -16 -50 -192 -211 0
 209 210 211 -212 0
 -209 -210 211 -212 0
 -209 210 -211 -212 0
 209 -210 -211 -212 0
 -209 -210 -211 212 0
 209 210 -211 212 0
 209 -210 211 212 0
 -209 210 211 212 0
 195 213 0
 21 213 0
 53 213 0
 -21 -53 -195 -213 0
 197 214 0
 25 214 0
 55 214 0
 -25 -55 -197 -214 0
 212 213 214 0
 -212 -213 214 0
 -212 213 -214 0
 212 -213 -214 0
 185 215 0
 3 215 0
 57 215 0
 -3 -57 -215 -185 0
 187 216 0
 7 216 0
 59 216 0
 -7 -59 -187 -216 0
 -215 216 -217 0
 215 -216 -217 0
 -215 -216 217 0
 215 216 217 0
 190 218 0
 12 218 0
 62 218 0
 -12 -62 -190 -218 0
 192 219 0
 16 219 0
 64 219 0
 -64 -16 -192 -219 0
 217 218 219 -220 0
 -217 -218 219 -220 0
 -217 218 -219 -220 0
 217 -218 -219 -220 0
 -217 -218 -219 220 0
 217 218 -219 220 0
 217 -218 219 220 0
 -217 218 219 220 0
 195 221 0
 21 221 0
 67 221 0
 -21 -67 -195 -221 0
 197 222 0
 25 222 0
 69 222 0
 -25 -69 -197 -222 0
 220 221 222 0
 -220 -221 222 0
 -220 221 -222 0
 220 -221 -222 0
 185 223 0
 71 223 0
 4 223 0
 -4 -71 -223 -185 0
 187 224 0
 73 224 0
 8 224 0
 -8 -73 -187 -224 0
 -223 224 -225 0
 -224 223 -225 0
 -223 -224 225 0
 224 223 225 0
 190 226 0
 76 226 0
 13 226 0
 -13 -76 -190 -226 0
 192 227 0
 78 227 0
 17 227 0
 -17 -78 -192 -227 0
 225 226 227 -228 0
 -225 -226 227 -228 0
 -225 226 -227 -228 0
 225 -226 -227 -228 0
 -225 -226 -227 228 0
 225 226 -227 228 0
 225 -226 227 228 0
 -225 226 227 228 0
 195 229 0
 81 229 0
 22 229 0
 -22 -81 -195 -229 0
 197 230 0
 83 230 0
 26 230 0
 -26 -83 -197 -230 0
 228 229 230 0
 -228 -229 230 0
 -228 229 -230 0
 228 -229 -230 0
 185 231 0
 71 231 0
 29 231 0
 -29 -71 -231 -185 0
 187 232 0
 73 232 0
 31 232 0
 -31 -73 -187 -232 0
 -231 232 -233 0
 -232 231 -233 0
 -231 -232 233 0
 232 231 233 0
 190 234 0
 76 234 0
 34 234 0
 -34 -76 -190 -234 0
 192 235 0
 78 235 0
 36 235 0
 -36 -78 -192 -235 0
 233 234 235 -236 0
 -233 -234 235 -236 0
 -233 234 -235 -236 0
 233 -234 -235 -236 0
 -233 -234 -235 236 0
 233 234 -235 236 0
 233 -234 235 236 0
 -233 234 235 236 0
 195 237 0
 81 237 0
 39 237 0
 -39 -81 -195 -237 0
 197 238 0
 83 238 0
 41 238 0
 -41 -83 -197 -238 0
 236 237 238 0
 -236 -237 238 0
 -236 237 -238 0
 236 -237 -238 0
 185 239 0
 71 239 0
 43 239 0
 -43 -71 -185 -239 0
 187 240 0
 73 240 0
 45 240 0
 -45 -73 -187 -240 0
 -239 240 -241 0
 239 -240 -241 0
 -239 -240 241 0
 239 240 241 0
 190 242 0
 76 242 0
 48 242 0
 -48 -76 -190 -242 0
 192 243 0
 78 243 0
 50 243 0
 -50 -78 -192 -243 0
 241 242 243 -244 0
 -241 -242 243 -244 0
 -241 242 -243 -244 0
 241 -242 -243 -244 0
 -241 -242 -243 244 0
 241 242 -243 244 0
 241 -242 243 244 0
 -241 242 243 244 0
 195 245 0
 81 245 0
 53 245 0
 -53 -81 -195 -245 0
 197 246 0
 83 246 0
 55 246 0
 -55 -83 -197 -246 0
 244 245 246 0
 -244 -245 246 0
 -244 245 -246 0
 244 -245 -246 0
 185 247 0
 71 247 0
 57 247 0
 -57 -71 -185 -247 0
 187 248 0
 73 248 0
 59 248 0
 -59 -73 -187 -248 0
 248 -247 -249 0
 247 -248 -249 0
 -248 -247 249 0
 248 247 249 0
 190 250 0
 76 250 0
 62 250 0
 -62 -76 -190 -250 0
 192 251 0
 78 251 0
 64 251 0
 -64 -78 -192 -251 0
 249 250 251 -252 0
 -249 -250 251 -252 0
 -249 250 -251 -252 0
 249 -250 -251 -252 0
 -249 -250 -251 252 0
 249 250 -251 252 0
 249 -250 251 252 0
 -249 250 251 252 0
 195 253 0
 81 253 0
 67 253 0
 -67 -81 -195 -253 0
 197 254 0
 83 254 0
 69 254 0
 -69 -83 -197 -254 0
 252 253 254 0
 -252 -253 254 0
 -252 253 -254 0
 252 -253 -254 0
 185 255 0
 110 255 0
 4 255 0
 -4 -110 -185 -255 0
 187 256 0
 112 256 0
 8 256 0
 -8 -112 -187 -256 0
 -255 256 -257 0
 255 -256 -257 0
 -255 -256 257 0
 255 256 257 0
 190 258 0
 115 258 0
 13 258 0
 -13 -115 -190 -258 0
 192 259 0
 117 259 0
 17 259 0
 -17 -117 -192 -259 0
 257 258 259 -260 0
 -257 -258 259 -260 0
 -257 258 -259 -260 0
 257 -258 -259 -260 0
 -257 -258 -259 260 0
 257 258 -259 260 0
 257 -258 259 260 0
 -257 258 259 260 0
 195 261 0
 120 261 0
 22 261 0
 -22 -120 -195 -261 0
 197 262 0
 122 262 0
 26 262 0
 -26 -122 -197 -262 0
 260 261 262 -263 0
 -260 -261 262 -263 0
 -260 261 -262 -263 0
 260 -261 -262 -263 0
 -260 -261 -262 263 0
 260 261 -262 263 0
 260 -261 262 263 0
 -260 261 262 263 0
 -263 0
 185 264 0
 110 264 0
 29 264 0
 -29 -110 -185 -264 0
 187 265 0
 112 265 0
 31 265 0
 -31 -112 -187 -265 0
 265 -264 -266 0
 264 -265 -266 0
 -264 -265 266 0
 265 264 266 0
 190 267 0
 115 267 0
 34 267 0
 -34 -115 -190 -267 0
 192 268 0
 117 268 0
 36 268 0
 -36 -117 -192 -268 0
 266 267 268 -269 0
 -266 -267 268 -269 0
 -266 267 -268 -269 0
 266 -267 -268 -269 0
 -266 -267 -268 269 0
 266 267 -268 269 0
 266 -267 268 269 0
 -266 267 268 269 0
 195 270 0
 120 270 0
 39 270 0
 -39 -120 -195 -270 0
 197 271 0
 122 271 0
 41 271 0
 -41 -122 -197 -271 0
 269 270 271 0
 -269 -270 271 0
 -269 270 -271 0
 269 -270 -271 0
 185 272 0
 110 272 0
 43 272 0
 -43 -110 -185 -272 0
 187 273 0
 112 273 0
 45 273 0
 -112 -45 -187 -273 0
 -272 273 -274 0
 -273 272 -274 0
 -272 -273 274 0
 273 272 274 0
 190 275 0
 115 275 0
 48 275 0
 -48 -115 -190 -275 0
 192 276 0
 117 276 0
 50 276 0
 -50 -117 -192 -276 0
 274 275 276 -277 0
 -274 -275 276 -277 0
 -274 275 -276 -277 0
 274 -275 -276 -277 0
 -274 -275 -276 277 0
 274 275 -276 277 0
 274 -275 276 277 0
 -274 275 276 277 0
 195 278 0
 120 278 0
 53 278 0
 -53 -120 -195 -278 0
 197 279 0
 122 279 0
 55 279 0
 -55 -122 -197 -279 0
 277 278 279 0
 -277 -278 279 0
 -277 278 -279 0
 277 -278 -279 0
 185 280 0
 110 280 0
 57 280 0
 -57 -110 -185 -280 0
 187 281 0
 112 281 0
 59 281 0
 -112 -59 -187 -281 0
 -280 281 -282 0
 280 -281 -282 0
 -280 -281 282 0
 281 280 282 0
 190 283 0
 115 283 0
 62 283 0
 -62 -115 -190 -283 0
 192 284 0
 117 284 0
 64 284 0
 -64 -117 -192 -284 0
 282 283 284 -285 0
 -282 -283 284 -285 0
 -282 283 -284 -285 0
 282 -283 -284 -285 0
 -282 -283 -284 285 0
 282 283 -284 285 0
 282 -283 284 285 0
 -282 283 284 285 0
 195 286 0
 120 286 0
 67 286 0
 -67 -120 -195 -286 0
 197 287 0
 122 287 0
 69 287 0
 -69 -122 -197 -287 0
 285 286 287 0
 -285 -286 287 0
 -285 286 -287 0
 285 -286 -287 0
 185 288 0
 148 288 0
 4 288 0
 -4 -148 -185 -288 0
 187 289 0
 150 289 0
 8 289 0
 -8 -150 -187 -289 0
 289 -288 -290 0
 288 -289 -290 0
 -288 -289 290 0
 289 288 290 0
 190 291 0
 153 291 0
 13 291 0
 -13 -153 -190 -291 0
 192 292 0
 155 292 0
 17 292 0
 -17 -155 -192 -292 0
 290 291 292 -293 0
 -290 -291 292 -293 0
 -290 291 -292 -293 0
 290 -291 -292 -293 0
 -290 -291 -292 293 0
 290 291 -292 293 0
 290 -291 292 293 0
 -290 291 292 293 0
 195 294 0
 158 294 0
 22 294 0
 -22 -158 -195 -294 0
 197 295 0
 160 295 0
 26 295 0
 -26 -160 -197 -295 0
 293 294 295 0
 -293 -294 295 0
 -293 294 -295 0
 293 -294 -295 0
 185 296 0
 148 296 0
 29 296 0
 -29 -148 -185 -296 0
 187 297 0
 150 297 0
 31 297 0
 -31 -150 -187 -297 0
 -296 297 -298 0
 296 -297 -298 0
 -296 -297 298 0
 296 297 298 0
 190 299 0
 153 299 0
 34 299 0
 -34 -153 -190 -299 0
 192 300 0
 155 300 0
 36 300 0
 -36 -155 -192 -300 0
 298 299 300 -301 0
 -298 -299 300 -301 0
 -298 299 -300 -301 0
 298 -299 -300 -301 0
 -298 -299 -300 301 0
 298 299 -300 301 0
 298 -299 300 301 0
 -298 299 300 301 0
 195 302 0
 158 302 0
 39 302 0
 -39 -158 -195 -302 0
 197 303 0
 160 303 0
 41 303 0
 -41 -160 -197 -303 0
 301 302 303 -304 0
 -301 -302 303 -304 0
 -301 302 -303 -304 0
 301 -302 -303 -304 0
 -301 -302 -303 304 0
 301 302 -303 304 0
 301 -302 303 304 0
 -301 302 303 304 0
 -304 0
 185 305 0
 148 305 0
 43 305 0
 -43 -148 -185 -305 0
 187 306 0
 150 306 0
 45 306 0
 -45 -150 -187 -306 0
 -305 306 -307 0
 305 -306 -307 0
 -305 -306 307 0
 305 306 307 0
 190 308 0
 153 308 0
 48 308 0
 -48 -153 -190 -308 0
 192 309 0
 155 309 0
 50 309 0
 -50 -155 -192 -309 0
 307 308 309 -310 0
 -307 -308 309 -310 0
 -307 308 -309 -310 0
 307 -308 -309 -310 0
 -307 -308 -309 310 0
 307 308 -309 310 0
 307 -308 309 310 0
 -307 308 309 310 0
 195 311 0
 158 311 0
 53 311 0
 -53 -158 -195 -311 0
 197 312 0
 160 312 0
 55 312 0
 -55 -160 -197 -312 0
 310 311 312 0
 -310 -311 312 0
 -310 311 -312 0
 310 -311 -312 0
 185 313 0
 148 313 0
 57 313 0
 -57 -148 -185 -313 0
 187 314 0
 150 314 0
 59 314 0
 -59 -150 -187 -314 0
 -313 314 -315 0
 -314 313 -315 0
 -313 -314 315 0
 314 313 315 0
 190 316 0
 153 316 0
 62 316 0
 -62 -153 -190 -316 0
 192 317 0
 155 317 0
 64 317 0
 -64 -155 -192 -317 0
 315 316 317 -318 0
 -315 -316 317 -318 0
 -315 316 -317 -318 0
 315 -316 -317 -318 0
 -315 -316 -317 318 0
 315 316 -317 318 0
 315 -316 317 318 0
 -315 316 317 318 0
 195 319 0
 158 319 0
 67 319 0
 -67 -158 -195 -319 0
 197 320 0
 160 320 0
 69 320 0
 -69 -160 -197 -320 0
 318 319 320 0
 -318 -319 320 0
 -318 319 -320 0
 318 -319 -320 0
 321 322 0
 3 322 0
 4 322 0
 -3 -4 -321 -322 0
 323 324 0
 7 324 0
 8 324 0
 -7 -8 -323 -324 0
 324 -322 -325 0
 -324 322 -325 0
 -322 -324 325 0
 324 322 325 0
 326 327 0
 12 327 0
 13 327 0
 -12 -13 -326 -327 0
 328 329 0
 16 329 0
 17 329 0
 -16 -17 -328 -329 0
 325 327 329 -330 0
 -325 -327 329 -330 0
 -325 327 -329 -330 0
 325 -327 -329 -330 0
 -325 -327 -329 330 0
 325 327 -329 330 0
 325 -327 329 330 0
 -325 327 329 330 0
 331 332 0
 21 332 0
 22 332 0
 -21 -22 -331 -332 0
 333 334 0
 25 334 0
 26 334 0
 -25 -26 -333 -334 0
 330 332 334 0
 -330 -332 334 0
 -330 332 -334 0
 330 -332 -334 0
 321 335 0
 3 335 0
 29 335 0
 -29 -3 -321 -335 0
 323 336 0
 7 336 0
 31 336 0
 -31 -7 -323 -336 0
 336 -335 -337 0
 335 -336 -337 0
 -335 -336 337 0
 336 335 337 0
 326 338 0
 12 338 0
 34 338 0
 -34 -12 -326 -338 0
 328 339 0
 16 339 0
 36 339 0
 -36 -16 -328 -339 0
 337 338 339 -340 0
 -337 -338 339 -340 0
 -337 338 -339 -340 0
 337 -338 -339 -340 0
 -337 -338 -339 340 0
 337 338 -339 340 0
 337 -338 339 340 0
 -337 338 339 340 0
 331 341 0
 21 341 0
 39 341 0
 -21 -39 -331 -341 0
 333 342 0
 25 342 0
 41 342 0
 -25 -41 -333 -342 0
 340 341 342 0
 -340 -341 342 0
 -340 341 -342 0
 340 -341 -342 0
 321 343 0
 3 343 0
 43 343 0
 -3 -43 -321 -343 0
 323 344 0
 7 344 0
 45 344 0
 -7 -45 -323 -344 0
 344 -343 -345 0
 343 -344 -345 0
 -343 -344 345 0
 343 344 345 0
 326 346 0
 12 346 0
 48 346 0
 -12 -48 -326 -346 0
 328 347 0
 16 347 0
 50 347 0
 -16 -50 -328 -347 0
 345 346 347 -348 0
 -345 -346 347 -348 0
 -345 346 -347 -348 0
 345 -346 -347 -348 0
 -345 -346 -347 348 0
 345 346 -347 348 0
 345 -346 347 348 0
 -345 346 347 348 0
 331 349 0
 21 349 0
 53 349 0
 -21 -53 -331 -349 0
 333 350 0
 25 350 0
 55 350 0
 -25 -55 -333 -350 0
 348 349 350 -351 0
 -348 -349 350 -351 0
 -348 349 -350 -351 0
 348 -349 -350 -351 0
 -348 -349 -350 351 0
 348 349 -350 351 0
 348 -349 350 351 0
 -348 349 350 351 0
 -351 0
 321 352 0
 3 352 0
 57 352 0
 -3 -57 -352 -321 0
 323 353 0
 7 353 0
 59 353 0
 -7 -59 -323 -353 0
 -352 353 -354 0
 352 -353 -354 0
 -352 -353 354 0
 352 353 354 0
 326 355 0
 12 355 0
 62 355 0
 -12 -62 -326 -355 0
 328 356 0
 16 356 0
 64 356 0
 -64 -16 -328 -356 0
 354 355 356 -357 0
 -354 -355 356 -357 0
 -354 355 -356 -357 0
 354 -355 -356 -357 0
 -354 -355 -356 357 0
 354 355 -356 357 0
 354 -355 356 357 0
 -354 355 356 357 0
 331 358 0
 21 358 0
 67 358 0
 -21 -67 -331 -358 0
 333 359 0
 25 359 0
 69 359 0
 -25 -69 -333 -359 0
 357 358 359 0
 -357 -358 359 0
 -357 358 -359 0
 357 -358 -359 0
 321 360 0
 71 360 0
 4 360 0
 -4 -71 -321 -360 0
 323 361 0
 73 361 0
 8 361 0
 -8 -73 -323 -361 0
 361 -360 -362 0
 -361 360 -362 0
 -360 -361 362 0
 361 360 362 0
 326 363 0
 76 363 0
 13 363 0
 -13 -76 -326 -363 0
 328 364 0
 78 364 0
 17 364 0
 -17 -78 -328 -364 0
 362 363 364 -365 0
 -362 -363 364 -365 0
 -362 363 -364 -365 0
 362 -363 -364 -365 0
 -362 -363 -364 365 0
 362 363 -364 365 0
 362 -363 364 365 0
 -362 363 364 365 0
 331 366 0
 81 366 0
 22 366 0
 -22 -81 -331 -366 0
 333 367 0
 83 367 0
 26 367 0
 -26 -83 -333 -367 0
 365 366 367 0
 -365 -366 367 0
 -365 366 -367 0
 365 -366 -367 0
 321 368 0
 71 368 0
 29 368 0
 -29 -71 -368 -321 0
 323 369 0
 73 369 0
 31 369 0
 -31 -73 -323 -369 0
 -368 369 -370 0
 368 -369 -370 0
 -368 -369 370 0
 368 369 370 0
 326 371 0
 76 371 0
 34 371 0
 -34 -76 -326 -371 0
 328 372 0
 78 372 0
 36 372 0
 -36 -78 -328 -372 0
 370 371 372 -373 0
 -370 -371 372 -373 0
 -370 371 -372 -373 0
 370 -371 -372 -373 0
 -370 -371 -372 373 0
 370 371 -372 373 0
 370 -371 372 373 0
 -370 371 372 373 0
 331 374 0
 81 374 0
 39 374 0
 -39 -81 -331 -374 0
 333 375 0
 83 375 0
 41 375 0
 -41 -83 -333 -375 0
 373 374 375 0
 -373 -374 375 0
 -373 374 -375 0
 373 -374 -375 0
 321 376 0
 71 376 0
 43 376 0
 -43 -71 -321 -376 0
 323 377 0
 73 377 0
 45 377 0
 -45 -73 -323 -377 0
 377 -376 -378 0
 376 -377 -378 0
 -376 -377 378 0
 377 376 378 0
 326 379 0
 76 379 0
 48 379 0
 -48 -76 -326 -379 0
 328 380 0
 78 380 0
 50 380 0
 -50 -78 -328 -380 0
 378 379 380 -381 0
 -378 -379 380 -381 0
 -378 379 -380 -381 0
 378 -379 -380 -381 0
 -378 -379 -380 381 0
 378 379 -380 381 0
 378 -379 380 381 0
 -378 379 380 381 0
 331 382 0
 81 382 0
 53 382 0
 -53 -81 -331 -382 0
 333 383 0
 83 383 0
 55 383 0
 -55 -83 -333 -383 0
 381 382 383 0
 -381 -382 383 0
 -381 382 -383 0
 381 -382 -383 0
 321 384 0
 71 384 0
 57 384 0
 -57 -71 -321 -384 0
 323 385 0
 73 385 0
 59 385 0
 -59 -73 -323 -385 0
 -384 385 -386 0
 384 -385 -386 0
 -384 -385 386 0
 384 385 386 0
 326 387 0
 76 387 0
 62 387 0
 -62 -76 -326 -387 0
 328 388 0
 78 388 0
 64 388 0
 -64 -78 -328 -388 0
 386 387 388 -389 0
 -386 -387 388 -389 0
 -386 387 -388 -389 0
 386 -387 -388 -389 0
 -386 -387 -388 389 0
 386 387 -388 389 0
 386 -387 388 389 0
 -386 387 388 389 0
 331 390 0
 81 390 0
 67 390 0
 -67 -81 -331 -390 0
 333 391 0
 83 391 0
 69 391 0
 -69 -83 -333 -391 0
 389 390 391 -392 0
 -389 -390 391 -392 0
 -389 390 -391 -392 0
 389 -390 -391 -392 0
 -389 -390 -391 392 0
 389 390 -391 392 0
 389 -390 391 392 0
 -389 390 391 392 0
 -392 0
 321 393 0
 110 393 0
 4 393 0
 -4 -110 -321 -393 0
 323 394 0
 112 394 0
 8 394 0
 -8 -112 -323 -394 0
 394 -393 -395 0
 -394 393 -395 0
 -393 -394 395 0
 394 393 395 0
 326 396 0
 115 396 0
 13 396 0
 -13 -115 -326 -396 0
 328 397 0
 117 397 0
 17 397 0
 -17 -117 -328 -397 0
 395 396 397 -398 0
 -395 -396 397 -398 0
 -395 396 -397 -398 0
 395 -396 -397 -398 0
 -395 -396 -397 398 0
 395 396 -397 398 0
 395 -396 397 398 0
 -395 396 397 398 0
 331 399 0
 120 399 0
 22 399 0
 -22 -120 -331 -399 0
 333 400 0
 122 400 0
 26 400 0
 -26 -122 -333 -400 0
 398 399 400 0
 -398 -399 400 0
 -398 399 -400 0
 398 -399 -400 0
 321 401 0
 110 401 0
 29 401 0
 -29 -110 -321 -401 0
 323 402 0
 112 402 0
 31 402 0
 -31 -112 -323 -402 0
 402 -401 -403 0
 401 -402 -403 0
 -402 -401 403 0
 401 402 403 0
 326 404 0
 115 404 0
 34 404 0
 -34 -115 -326 -404 0
 328 405 0
 117 405 0
 36 405 0
 -36 -117 -328 -405 0
 403 404 405 -406 0
 -403 -404 405 -406 0
 -403 404 -405 -406 0
 403 -404 -405 -406 0
 -403 -404 -405 406 0
 403 404 -405 406 0
 403 -404 405 406 0
 -403 404 405 406 0
 331 407 0
 120 407 0
 39 407 0
 -39 -120 -331 -407 0
 333 408 0
 122 408 0
 41 408 0
 -41 -122 -333 -408 0
 406 407 408 0
 -406 -407 408 0
 -406 407 -408 0
 406 -407 -408 0
 321 409 0
 110 409 0
 43 409 0
 -43 -110 -321 -409 0
 323 410 0
 112 410 0
 45 410 0
 -112 -45 -323 -410 0
 -409 410 -411 0
 -410 409 -411 0
 -409 -410 411 0
 410 409 411 0
 326 412 0
 115 412 0
 48 412 0
 -48 -115 -326 -412 0
 328 413 0
 117 413 0
 50 413 0
 -50 -117 -328 -413 0
 411 412 413 -414 0
 -411 -412 413 -414 0
 -411 412 -413 -414 0
 411 -412 -413 -414 0
 -411 -412 -413 414 0
 411 412 -413 414 0
 411 -412 413 414 0
 -411 412 413 414 0
 331 415 0
 120 415 0
 53 415 0
 -53 -120 -331 -415 0
 333 416 0
 122 416 0
 55 416 0
 -55 -122 -333 -416 0
 414 415 416 0
 -414 -415 416 0
 -414 415 -416 0
 414 -415 -416 0
 321 417 0
 110 417 0
 57 417 0
 -57 -110 -321 -417 0
 323 418 0
 112 418 0
 59 418 0
 -112 -59 -323 -418 0
 418 -417 -419 0
 417 -418 -419 0
 -417 -418 419 0
 418 417 419 0
 326 420 0
 115 420 0
 62 420 0
 -62 -115 -326 -420 0
 328 421 0
 117 421 0
 64 421 0
 -64 -117 -328 -421 0
 419 420 421 -422 0
 -419 -420 421 -422 0
 -419 420 -421 -422 0
 419 -420 -421 -422 0
 -419 -420 -421 422 0
 419 420 -421 422 0
 419 -420 421 422 0
 -419 420 421 422 0
 331 423 0
 120 423 0
 67 423 0
 -67 -120 -331 -423 0
 333 424 0
 122 424 0
 69 424 0
 -69 -122 -333 -424 0
 422 423 424 0
 -422 -423 424 0
 -422 423 -424 0
 422 -423 -424 0
 321 425 0
 148 425 0
 4 425 0
 -4 -148 -321 -425 0
 323 426 0
 150 426 0
 8 426 0
 -8 -150 -323 -426 0
 -425 426 -427 0
 425 -426 -427 0
 -425 -426 427 0
 425 426 427 0
 326 428 0
 153 428 0
 13 428 0
 -13 -153 -326 -428 0
 328 429 0
 155 429 0
 17 429 0
 -17 -155 -328 -429 0
 427 428 429 -430 0
 -427 -428 429 -430 0
 -427 428 -429 -430 0
 427 -428 -429 -430 0
 -427 -428 -429 430 0
 427 428 -429 430 0
 427 -428 429 430 0
 -427 428 429 430 0
 331 431 0
 158 431 0
 22 431 0
 -22 -158 -331 -431 0
 333 432 0
 160 432 0
 26 432 0
 -26 -160 -333 -432 0
 430 431 432 0
 -430 -431 432 0
 -430 431 -432 0
 430 -431 -432 0
 321 433 0
 148 433 0
 29 433 0
 -29 -148 -321 -433 0
 323 434 0
 150 434 0
 31 434 0
 -31 -150 -323 -434 0
 -433 434 -435 0
 433 -434 -435 0
 -433 -434 435 0
 433 434 435 0
 326 436 0
 153 436 0
 34 436 0
 -34 -153 -326 -436 0
 328 437 0
 155 437 0
 36 437 0
 -36 -155 -328 -437 0
 435 436 437 -438 0
 -435 -436 437 -438 0
 -435 436 -437 -438 0
 435 -436 -437 -438 0
 -435 -436 -437 438 0
 435 436 -437 438 0
 435 -436 437 438 0
 -435 436 437 438 0
 331 439 0
 158 439 0
 39 439 0
 -39 -158 -331 -439 0
 333 440 0
 160 440 0
 41 440 0
 -41 -160 -333 -440 0
 438 439 440 0
 -438 -439 440 0
 -438 439 -440 0
 438 -439 -440 0
 321 441 0
 148 441 0
 43 441 0
 -43 -148 -321 -441 0
 323 442 0
 150 442 0
 45 442 0
 -45 -150 -323 -442 0
 -441 442 -443 0
 441 -442 -443 0
 -441 -442 443 0
 441 442 443 0
 326 444 0
 153 444 0
 48 444 0
 -48 -153 -326 -444 0
 328 445 0
 155 445 0
 50 445 0
 -50 -155 -328 -445 0
 443 444 445 -446 0
 -443 -444 445 -446 0
 -443 444 -445 -446 0
 443 -444 -445 -446 0
 -443 -444 -445 446 0
 443 444 -445 446 0
 443 -444 445 446 0
 -443 444 445 446 0
 331 447 0
 158 447 0
 53 447 0
 -53 -158 -331 -447 0
 333 448 0
 160 448 0
 55 448 0
 -55 -160 -333 -448 0
 446 447 448 0
 -446 -447 448 0
 -446 447 -448 0
 446 -447 -448 0
 321 449 0
 148 449 0
 57 449 0
 -57 -148 -321 -449 0
 323 450 0
 150 450 0
 59 450 0
 -59 -150 -323 -450 0
 450 -449 -451 0
 -450 449 -451 0
 -450 -449 451 0
 450 449 451 0
 326 452 0
 153 452 0
 62 452 0
 -62 -153 -326 -452 0
 328 453 0
 155 453 0
 64 453 0
 -64 -155 -328 -453 0
 451 452 453 -454 0
 -451 -452 453 -454 0
 -451 452 -453 -454 0
 451 -452 -453 -454 0
 -451 -452 -453 454 0
 451 452 -453 454 0
 451 -452 453 454 0
 -451 452 453 454 0
 331 455 0
 158 455 0
 67 455 0
 -67 -158 -331 -455 0
 333 456 0
 160 456 0
 69 456 0
 -69 -160 -333 -456 0
 454 455 456 0
 -454 -455 456 0
 -454 455 -456 0
 454 -455 -456 0
 457 458 0
 3 458 0
 4 458 0
 -3 -4 -457 -458 0
 459 460 0
 7 460 0
 8 460 0
 -7 -8 -459 -460 0
 460 -458 -461 0
 458 -460 -461 0
 -460 -458 461 0
 460 458 461 0
 462 463 0
 12 463 0
 13 463 0
 -12 -13 -462 -463 0
 464 465 0
 16 465 0
 17 465 0
 -16 -17 -464 -465 0
 461 463 465 -466 0
 -461 -463 465 -466 0
 -461 463 -465 -466 0
 461 -463 -465 -466 0
 -461 -463 -465 466 0
 461 463 -465 466 0
 461 -463 465 466 0
 -461 463 465 466 0
 467 468 0
 21 468 0
 22 468 0
 -21 -22 -467 -468 0
 469 470 0
 25 470 0
 26 470 0
 -25 -26 -469 -470 0
 466 468 470 0
 -466 -468 470 0
 -466 468 -470 0
 466 -468 -470 0
 457 471 0
 3 471 0
 29 471 0
 -29 -3 -457 -471 0
 459 472 0
 7 472 0
 31 472 0
 -31 -7 -459 -472 0
 -471 472 -473 0
 471 -472 -473 0
 -472 -471 473 0
 471 472 473 0
 462 474 0
 12 474 0
 34 474 0
 -34 -12 -462 -474 0
 464 475 0
 16 475 0
 36 475 0
 -36 -16 -464 -475 0
 473 474 475 -476 0
 -473 -474 475 -476 0
 -473 474 -475 -476 0
 473 -474 -475 -476 0
 -473 -474 -475 476 0
 473 474 -475 476 0
 473 -474 475 476 0
 -473 474 475 476 0
 467 477 0
 21 477 0
 39 477 0
 -21 -39 -467 -477 0
 469 478 0
 25 478 0
 41 478 0
 -25 -41 -469 -478 0
 476 477 478 0
 -476 -477 478 0
 -476 477 -478 0
 476 -477 -478 0
 457 479 0
 3 479 0
 43 479 0
 -3 -43 -457 -479 0
 459 480 0
 7 480 0
 45 480 0
 -7 -45 -459 -480 0
 -479 480 -481 0
 479 -480 -481 0
 -479 -480 481 0
 480 479 481 0
 462 482 0
 12 482 0
 48 482 0
 -12 -48 -462 -482 0
 464 483 0
 16 483 0
 50 483 0
 -16 -50 -464 -483 0
 481 482 483 -484 0
 -481 -482 483 -484 0
 -481 482 -483 -484 0
 481 -482 -483 -484 0
 -481 -482 -483 484 0
 481 482 -483 484 0
 481 -482 483 484 0
 -481 482 483 484 0
 467 485 0
 21 485 0
 53 485 0
 -21 -53 -467 -485 0
 469 486 0
 25 486 0
 55 486 0
 -25 -55 -469 -486 0
 484 485 486 0
 -484 -485 486 0
 -484 485 -486 0
 484 -485 -486 0
 457 487 0
 3 487 0
 57 487 0
 -3 -57 -487 -457 0
 459 488 0
 7 488 0
 59 488 0
 -7 -59 -459 -488 0
 -487 488 -489 0
 487 -488 -489 0
 -487 -488 489 0
 487 488 489 0
 462 490 0
 12 490 0
 62 490 0
 -12 -62 -462 -490 0
 464 491 0
 16 491 0
 64 491 0
 -64 -16 -464 -491 0
 489 490 491 -492 0
 -489 -490 491 -492 0
 -489 490 -491 -492 0
 489 -490 -491 -492 0
 -489 -490 -491 492 0
 489 490 -491 492 0
 489 -490 491 492 0
 -489 490 491 492 0
 467 493 0
 21 493 0
 67 493 0
 -21 -67 -467 -493 0
 469 494 0
 25 494 0
 69 494 0
 -25 -69 -469 -494 0
 492 493 494 0
 -492 -493 494 0
 -492 493 -494 0
 492 -493 -494 0
 457 495 0
 71 495 0
 4 495 0
 -4 -71 -495 -457 0
 459 496 0
 73 496 0
 8 496 0
 -8 -73 -459 -496 0
 -495 496 -497 0
 495 -496 -497 0
 -495 -496 497 0
 495 496 497 0
 462 498 0
 76 498 0
 13 498 0
 -13 -76 -462 -498 0
 464 499 0
 78 499 0
 17 499 0
 -17 -78 -464 -499 0
 497 498 499 -500 0
 -497 -498 499 -500 0
 -497 498 -499 -500 0
 497 -498 -499 -500 0
 -497 -498 -499 500 0
 497 498 -499 500 0
 497 -498 499 500 0
 -497 498 499 500 0
 467 501 0
 81 501 0
 22 501 0
 -22 -81 -467 -501 0
 469 502 0
 83 502 0
 26 502 0
 -26 -83 -469 -502 0
 500 501 502 0
 -500 -501 502 0
 -500 501 -502 0
 500 -501 -502 0
 457 503 0
 71 503 0
 29 503 0
 -29 -71 -457 -503 0
 459 504 0
 73 504 0
 31 504 0
 -31 -73 -459 -504 0
 -503 504 -505 0
 -504 503 -505 0
 -503 -504 505 0
 503 504 505 0
 462 506 0
 76 506 0
 34 506 0
 -34 -76 -462 -506 0
 464 507 0
 78 507 0
 36 507 0
 -36 -78 -464 -507 0
 505 506 507 -508 0
 -505 -506 507 -508 0
 -505 506 -507 -508 0
 505 -506 -507 -508 0
 -505 -506 -507 508 0
 505 506 -507 508 0
 505 -506 507 508 0
 -505 506 507 508 0
 467 509 0
 81 509 0
 39 509 0
 -39 -81 -467 -509 0
 469 510 0
 83 510 0
 41 510 0
 -41 -83 -469 -510 0
 508 509 510 0
 -508 -509 510 0
 -508 509 -510 0
 508 -509 -510 0
 457 511 0
 71 511 0
 43 511 0
 -43 -71 -457 -511 0
 459 512 0
 73 512 0
 45 512 0
 -45 -73 -459 -512 0
 512 -511 -513 0
 511 -512 -513 0
 -511 -512 513 0
 511 512 513 0
 462 514 0
 76 514 0
 48 514 0
 -48 -76 -462 -514 0
 464 515 0
 78 515 0
 50 515 0
 -50 -78 -464 -515 0
 513 514 515 -516 0
 -513 -514 515 -516 0
 -513 514 -515 -516 0
 513 -514 -515 -516 0
 -513 -514 -515 516 0
 513 514 -515 516 0
 513 -514 515 516 0
 -513 514 515 516 0
 467 517 0
 81 517 0
 53 517 0
 -53 -81 -467 -517 0
 469 518 0
 83 518 0
 55 518 0
 -55 -83 -469 -518 0
 516 517 518 0
 -516 -517 518 0
 -516 517 -518 0
 516 -517 -518 0
 457 519 0
 71 519 0
 57 519 0
 -57 -71 -457 -519 0
 459 520 0
 73 520 0
 59 520 0
 -59 -73 -459 -520 0
 -519 520 -521 0
 -520 519 -521 0
 -519 -520 521 0
 520 519 521 0
 462 522 0
 76 522 0
 62 522 0
 -62 -76 -462 -522 0
 464 523 0
 78 523 0
 64 523 0
 -64 -78 -464 -523 0
 521 522 523 -524 0
 -521 -522 523 -524 0
 -521 522 -523 -524 0
 521 -522 -523 -524 0
 -521 -522 -523 524 0
 521 522 -523 524 0
 521 -522 523 524 0
 -521 522 523 524 0
 467 525 0
 81 525 0
 67 525 0
 -67 -81 -467 -525 0
 469 526 0
 83 526 0
 69 526 0
 -69 -83 -469 -526 0
 524 525 526 0
 -524 -525 526 0
 -524 525 -526 0
 524 -525 -526 0
 457 527 0
 110 527 0
 4 527 0
 -4 -110 -457 -527 0
 459 528 0
 112 528 0
 8 528 0
 -8 -112 -459 -528 0
 -527 528 -529 0
 527 -528 -529 0
 -527 -528 529 0
 527 528 529 0
 462 530 0
 115 530 0
 13 530 0
 -13 -115 -462 -530 0
 464 531 0
 117 531 0
 17 531 0
 -17 -117 -464 -531 0
 529 530 531 -532 0
 -529 -530 531 -532 0
 -529 530 -531 -532 0
 529 -530 -531 -532 0
 -529 -530 -531 532 0
 529 530 -531 532 0
 529 -530 531 532 0
 -529 530 531 532 0
 467 533 0
 120 533 0
 22 533 0
 -22 -120 -467 -533 0
 469 534 0
 122 534 0
 26 534 0
 -26 -122 -469 -534 0
 532 533 534 0
 -532 -533 534 0
 -532 533 -534 0
 532 -533 -534 0
 457 535 0
 110 535 0
 29 535 0
 -29 -110 -457 -535 0
 459 536 0
 112 536 0
 31 536 0
 -31 -112 -459 -536 0
 -535 536 -537 0
 -536 535 -537 0
 -535 -536 537 0
 536 535 537 0
 462 538 0
 115 538 0
 34 538 0
 -34 -115 -462 -538 0
 464 539 0
 117 539 0
 36 539 0
 -36 -117 -464 -539 0
 537 538 539 -540 0
 -537 -538 539 -540 0
 -537 538 -539 -540 0
 537 -538 -539 -540 0
 -537 -538 -539 540 0
 537 538 -539 540 0
 537 -538 539 540 0
 -537 538 539 540 0
 467 541 0
 120 541 0
 39 541 0
 -39 -120 -467 -541 0
 469 542 0
 122 542 0
 41 542 0
 -41 -122 -469 -542 0
 540 541 542 0
 -540 -541 542 0
 -540 541 -542 0
 540 -541 -542 0
 457 543 0
 110 543 0
 43 543 0
 -43 -110 -457 -543 0
 459 544 0
 112 544 0
 45 544 0
 -112 -45 -459 -544 0
 -543 544 -545 0
 543 -544 -545 0
 -543 -544 545 0
 543 544 545 0
 462 546 0
 115 546 0
 48 546 0
 -48 -115 -462 -546 0
 464 547 0
 117 547 0
 50 547 0
 -50 -117 -464 -547 0
 545 546 547 -548 0
 -545 -546 547 -548 0
 -545 546 -547 -548 0
 545 -546 -547 -548 0
 -545 -546 -547 548 0
 545 546 -547 548 0
 545 -546 547 548 0
 -545 546 547 548 0
 467 549 0
 120 549 0
 53 549 0
 -53 -120 -467 -549 0
 469 550 0
 122 550 0
 55 550 0
 -55 -122 -469 -550 0
 548 549 550 -551 0
 -548 -549 550 -551 0
 -548 549 -550 -551 0
 548 -549 -550 -551 0
 -548 -549 -550 551 0
 548 549 -550 551 0
 548 -549 550 551 0
 -548 549 550 551 0
 -551 0
 457 552 0
 110 552 0
 57 552 0
 -57 -110 -457 -552 0
 459 553 0
 112 553 0
 59 553 0
 -112 -59 -459 -553 0
 -552 553 -554 0
 552 -553 -554 0
 -552 -553 554 0
 552 553 554 0
 462 555 0
 115 555 0
 62 555 0
 -62 -115 -462 -555 0
 464 556 0
 117 556 0
 64 556 0
 -64 -117 -464 -556 0
 554 555 556 -557 0
 -554 -555 556 -557 0
 -554 555 -556 -557 0
 554 -555 -556 -557 0
 -554 -555 -556 557 0
 554 555 -556 557 0
 554 -555 556 557 0
 -554 555 556 557 0
 467 558 0
 120 558 0
 67 558 0
 -67 -120 -467 -558 0
 469 559 0
 122 559 0
 69 559 0
 -69 -122 -469 -559 0
 557 558 559 0
 -557 -558 559 0
 -557 558 -559 0
 557 -558 -559 0
 457 560 0
 148 560 0
 4 560 0
 -4 -148 -457 -560 0
 459 561 0
 150 561 0
 8 561 0
 -8 -150 -459 -561 0
 -560 561 -562 0
 560 -561 -562 0
 -560 -561 562 0
 560 561 562 0
 462 563 0
 153 563 0
 13 563 0
 -13 -153 -462 -563 0
 464 564 0
 155 564 0
 17 564 0
 -17 -155 -464 -564 0
 562 563 564 -565 0
 -562 -563 564 -565 0
 -562 563 -564 -565 0
 562 -563 -564 -565 0
 -562 -563 -564 565 0
 562 563 -564 565 0
 562 -563 564 565 0
 -562 563 564 565 0
 467 566 0
 158 566 0
 22 566 0
 -22 -158 -467 -566 0
 469 567 0
 160 567 0
 26 567 0
 -26 -160 -469 -567 0
 565 566 567 0
 -565 -566 567 0
 -565 566 -567 0
 565 -566 -567 0
 457 568 0
 148 568 0
 29 568 0
 -29 -148 -457 -568 0
 459 569 0
 150 569 0
 31 569 0
 -31 -150 -459 -569 0
 569 -568 -570 0
 -569 568 -570 0
 -569 -568 570 0
 569 568 570 0
 462 571 0
 153 571 0
 34 571 0
 -34 -153 -462 -571 0
 464 572 0
 155 572 0
 36 572 0
 -36 -155 -464 -572 0
 570 571 572 -573 0
 -570 -571 572 -573 0
 -570 571 -572 -573 0
 570 -571 -572 -573 0
 -570 -571 -572 573 0
 570 571 -572 573 0
 570 -571 572 573 0
 -570 571 572 573 0
 467 574 0
 158 574 0
 39 574 0
 -39 -158 -467 -574 0
 469 575 0
 160 575 0
 41 575 0
 -41 -160 -469 -575 0
 573 574 575 0
 -573 -574 575 0
 -573 574 -575 0
 573 -574 -575 0
 457 576 0
 148 576 0
 43 576 0
 -43 -148 -457 -576 0
 459 577 0
 150 577 0
 45 577 0
 -45 -150 -459 -577 0
 -576 577 -578 0
 576 -577 -578 0
 -576 -577 578 0
 576 577 578 0
 462 579 0
 153 579 0
 48 579 0
 -48 -153 -462 -579 0
 464 580 0
 155 580 0
 50 580 0
 -50 -155 -464 -580 0
 578 579 580 -581 0
 -578 -579 580 -581 0
 -578 579 -580 -581 0
 578 -579 -580 -581 0
 -578 -579 -580 581 0
 578 579 -580 581 0
 578 -579 580 581 0
 -578 579 580 581 0
 467 582 0
 158 582 0
 53 582 0
 -53 -158 -467 -582 0
 469 583 0
 160 583 0
 55 583 0
 -55 -160 -469 -583 0
 581 582 583 0
 -581 -582 583 0
 -581 582 -583 0
 581 -582 -583 0
 457 584 0
 148 584 0
 57 584 0
 -57 -148 -457 -584 0
 459 585 0
 150 585 0
 59 585 0
 -59 -150 -459 -585 0
 -584 585 -586 0
 584 -585 -586 0
 -584 -585 586 0
 584 585 586 0
 462 587 0
 153 587 0
 62 587 0
 -62 -153 -462 -587 0
 464 588 0
 155 588 0
 64 588 0
 -64 -155 -464 -588 0
 586 587 588 -589 0
 -586 -587 588 -589 0
 -586 587 -588 -589 0
 586 -587 -588 -589 0
 -586 -587 -588 589 0
 586 587 -588 589 0
 586 -587 588 589 0
 -586 587 588 589 0
 467 590 0
 158 590 0
 67 590 0
 -67 -158 -467 -590 0
 469 591 0
 160 591 0
 69 591 0
 -69 -160 -469 -591 0
 589 590 591 -592 0
 -589 -590 591 -592 0
 -589 590 -591 -592 0
 589 -590 -591 -592 0
 -589 -590 -591 592 0
 589 590 -591 592 0
 589 -590 591 592 0
 -589 590 591 592 0
 -592 0
